%BLOCK lattice_cart
   ANG
       7.7336692000    0.0000000000    0.0000000000
       0.0000000000    7.7336692000    0.0000000000
       0.0000000000    0.0000000000   10.9370598695
%ENDBLOCK lattice_cart


%BLOCK cell_constraints
      0   0   0
      0   0   0
%ENDBLOCK cell_constraints


%BLOCK positions_frac
   Si       0.0000000000    0.0000000000    0.0000000000
   Si       0.2500000000    0.0000000000    0.1250000000
   Si       0.2500000000    0.2500000000    0.2500000000
   Si       0.0000000000    0.2500000000    0.3750000000
   Si       0.0000000000    0.0000000000    0.5000000000
   Si       0.2500000000    0.0000000000    0.6250000000
   Si       0.2500000000    0.2500000000    0.7500000000
   Si       0.0000000000    0.2500000000    0.8750000000
   Si       0.0000000000    0.5000000000    0.0000000000
   Si       0.2500000000    0.5000000000    0.1250000000
   Si       0.2500000000    0.7500000000    0.2500000000
   Si       0.0000000000    0.7500000000    0.3750000000
   Si       0.0000000000    0.5000000000    0.5000000000
   Si       0.2500000000    0.5000000000    0.6250000000
   Si       0.2500000000    0.7500000000    0.7500000000
   Si       0.0000000000    0.7500000000    0.8750000000
   Si       0.5000000000    0.0000000000    0.0000000000
   Si       0.7500000000    0.0000000000    0.1250000000
   Si       0.7500000000    0.2500000000    0.2500000000
   Si       0.5000000000    0.2500000000    0.3750000000
   Si       0.5000000000    0.0000000000    0.5000000000
   Si       0.7500000000    0.0000000000    0.6250000000
   Si       0.7500000000    0.2500000000    0.7500000000
   Si       0.5000000000    0.2500000000    0.8750000000
   Si       0.5000000000    0.5000000000    0.0000000000
   Si       0.7500000000    0.5000000000    0.1250000000
   Si       0.7500000000    0.7500000000    0.2500000000
   Si       0.5000000000    0.7500000000    0.3750000000
   Si       0.5000000000    0.5000000000    0.5000000000
   Si       0.7500000000    0.5000000000    0.6250000000
   Si       0.7500000000    0.7500000000    0.7500000000
   Si       0.5000000000    0.7500000000    0.8750000000
%ENDBLOCK positions_frac
