# CELL file written 18:39:39 (GMT+1.0) 26th May 2025 from run si001_clean

%BLOCK lattice_cart
   ANG
       3.86419760000000        0.00000000000000        0.00000000000000    
       0.00000000000000        7.72839520000000        0.00000000000000    
       0.00000000000000        0.00000000000000        25.2604290038000    
%ENDBLOCK lattice_cart

%BLOCK cell_constraints
      0   0   0
      0   0   0
%ENDBLOCK cell_constraints

%BLOCK positions_frac
   Si               0.000000057761206       0.655933573781229       0.624111506060860
   Si              0.000000203015056       0.344066442998661       0.624111510343881
   Si              0.499999989854822       0.734945849333594       0.575250486698720
   Si              0.500000189931455       0.265054217799589       0.575250447768089
   Si              0.499999879774274       0.500000103344984       0.515121752201498
   Si              0.500000140748123      -0.000000019697932       0.526566611652271
   Si             -0.000000089540831       0.500000099504051       0.462162569867493
   Si              0.000000105846068       0.000000030659114       0.470963952682419
   Si              0.000000156032319       0.757594659246147       0.412347460076066
   Si              -0.000000140803534       0.242405461326342       0.412347462879850
   Si               0.500000157160269       0.755356477620602       0.358184584217934
   Si               0.499999895967381       0.244643353174022       0.358184612310860
   Si               0.499999955396634       0.499999878115890       0.305553224130469
   Si               0.500000088065385      -0.000000123424240       0.302736242540634
   Si              -0.000000038215609       0.499999939731698       0.250991084364072
   Si               0.000000092150811       0.000000025091677       0.249424726743755
   Si              -0.000000028243399       0.749171203196931       0.196304570148886
   Si               0.000000071498487       0.250828761343485       0.196304546125901
   Si               0.499999965937263       0.749613112696303       0.142335918955829
   Si               0.500000058920677       0.250386878151782       0.142335909193821
   Si               0.500000000000000       0.500000000000000       0.088368479500000
   Si               0.500000000000000       0.000000000000000       0.088368479500000
   Si              -0.000000000000000       0.500000000000000       0.034283875500000
   Si              -0.000000000000000      -0.000000000000000       0.034283875500000
%ENDBLOCK positions_frac

FIX_COM : false

%BLOCK ionic_constraints
        1 Si            21        1.00000000    0.00000000    0.00000000
        2 Si            21        0.00000000    1.00000000    0.00000000
        3 Si            21        0.00000000    0.00000000    1.00000000
        4 Si            22        1.00000000    0.00000000    0.00000000
        5 Si            22        0.00000000    1.00000000    0.00000000
        6 Si            22        0.00000000    0.00000000    1.00000000
        7 Si            23        1.00000000    0.00000000    0.00000000
        8 Si            23        0.00000000    1.00000000    0.00000000
        9 Si            23        0.00000000    0.00000000    1.00000000
       10 Si            24        1.00000000    0.00000000    0.00000000
       11 Si            24        0.00000000    1.00000000    0.00000000
       12 Si            24        0.00000000    0.00000000    1.00000000
       13 H              3        1.00000000    0.00000000    0.00000000
       14 H              3        0.00000000    1.00000000    0.00000000
       15 H              3        0.00000000    0.00000000    1.00000000
       16 H              4        1.00000000    0.00000000    0.00000000
       17 H              4        0.00000000    1.00000000    0.00000000
       18 H              4        0.00000000    0.00000000    1.00000000
       19 H              5        1.00000000    0.00000000    0.00000000
       20 H              5        0.00000000    1.00000000    0.00000000
       21 H              5        0.00000000    0.00000000    1.00000000
       22 H              6        1.00000000    0.00000000    0.00000000
       23 H              6        0.00000000    1.00000000    0.00000000
       24 H              6        0.00000000    0.00000000    1.00000000
%ENDBLOCK ionic_constraints

%BLOCK species_pot
   H         1|0.6|13|15|17|10(qc=8)
   Si        3|1.8|5|6|7|30:31:32
%ENDBLOCK species_pot

SYMMETRY_TOL :     0.001000

%BLOCK symmetry_ops
# Symm. op. 1       E
          1.000000000000000       0.000000000000000       0.000000000000000
          0.000000000000000       1.000000000000000       0.000000000000000
          0.000000000000000       0.000000000000000       1.000000000000000
          0.000000000000000       0.000000000000000       0.000000000000000
%ENDBLOCK symmetry_ops

kpoint_mp_grid :    2   2   2

