# CELL file written 18:23:31 (GMT+1.0) 3rd June 2025 from run si001_H_1_2_12

%BLOCK lattice_cart
   ANG
       3.86420000000000        0.00000000000000        0.00000000000000    
       0.00000000000000        7.72840000000000        0.00000000000000    
       0.00000000000000        0.00000000000000        27.2950232038000    
%ENDBLOCK lattice_cart

%BLOCK cell_constraints
      0   0   0
      0   0   0
%ENDBLOCK cell_constraints

%BLOCK positions_frac
   H                0.000000000000000       0.278036796132234       0.629775922364737
   H                0.000000000000000       0.721958203867766       0.629774317364737
   H                0.000000000000000       0.841526723300000      -0.000000000000000
   H                0.000000000000000       0.341526723300000      -0.000000000000000
   H                0.000000000000000       0.658473276700000      -0.000000000000000
   H                0.000000000000000       0.158473276700000      -0.000000000000000
   Si               0.000000000000000       0.344055606978350       0.577997618050036
   Si               0.000000000000000       0.655939393021650       0.577996012950036
   Si               0.500000000000000       0.264480545340792       0.533296913191440
   Si               0.500000000000000       0.735520454659207       0.533296110591440
   Si               0.500000000000000       0.000000000000000       0.488199155103456
   Si               0.500000000000000       0.500000000000000       0.478131366783049
   Si               0.000000000000000       0.000000000000000       0.436684425963450
   Si               0.000000000000000       0.500000000000000       0.429410849412849
   Si               0.000000000000000       0.756196439051634       0.382962528013734
   Si               0.000000000000000       0.243803560948366       0.382962528013734
   Si               0.500000000000000       0.754420684392752       0.332833585381114
   Si               0.500000000000000       0.245578315607248       0.332833585381114
   Si               0.500000000000000       0.500000000000000       0.283915932448772
   Si               0.500000000000000       0.000000000000000       0.281701301174135
   Si               0.000000000000000       0.500000000000000       0.233454471148006
   Si               0.000000000000000       0.000000000000000       0.231977286331493
   Si               0.000000000000000       0.748909745678595       0.182468475596919
   Si               0.000000000000000       0.251090254321405       0.182468475596919
   Si               0.500000000000000       0.749508862776314       0.132199042582553
   Si               0.500000000000000       0.250491137223686       0.132199042582553
   Si               0.500000000000000       0.500000000000000       0.081887036200000
   Si               0.500000000000000       0.000000000000000       0.081887036200000
   Si               0.000000000000000       0.500000000000000       0.031728326300000
   Si               0.000000000000000       0.000000000000000       0.031728326300000
%ENDBLOCK positions_frac

FIX_COM : false

%BLOCK ionic_constraints
        1 Si            21        1.00000000    0.00000000    0.00000000
        2 Si            21        0.00000000    1.00000000    0.00000000
        3 Si            21        0.00000000    0.00000000    1.00000000
        4 Si            22        1.00000000    0.00000000    0.00000000
        5 Si            22        0.00000000    1.00000000    0.00000000
        6 Si            22        0.00000000    0.00000000    1.00000000
        7 Si            23        1.00000000    0.00000000    0.00000000
        8 Si            23        0.00000000    1.00000000    0.00000000
        9 Si            23        0.00000000    0.00000000    1.00000000
       10 Si            24        1.00000000    0.00000000    0.00000000
       11 Si            24        0.00000000    1.00000000    0.00000000
       12 Si            24        0.00000000    0.00000000    1.00000000
       13 H              3        1.00000000    0.00000000    0.00000000
       14 H              3        0.00000000    1.00000000    0.00000000
       15 H              3        0.00000000    0.00000000    1.00000000
       16 H              4        1.00000000    0.00000000    0.00000000
       17 H              4        0.00000000    1.00000000    0.00000000
       18 H              4        0.00000000    0.00000000    1.00000000
       19 H              5        1.00000000    0.00000000    0.00000000
       20 H              5        0.00000000    1.00000000    0.00000000
       21 H              5        0.00000000    0.00000000    1.00000000
       22 H              6        1.00000000    0.00000000    0.00000000
       23 H              6        0.00000000    1.00000000    0.00000000
       24 H              6        0.00000000    0.00000000    1.00000000
%ENDBLOCK ionic_constraints

%BLOCK species_pot
   H         1|0.6|13|15|17|10(qc=8)
   Si        3|1.8|5|6|7|30:31:32
%ENDBLOCK species_pot

%BLOCK symmetry_ops
# Symm. op. 1       E
          1.000000000000000       0.000000000000000       0.000000000000000
          0.000000000000000       1.000000000000000       0.000000000000000
          0.000000000000000       0.000000000000000       1.000000000000000
          0.000000000000000       0.000000000000000       0.000000000000000
# Symm. op. 2       2
         -1.000000000000000       0.000000000000000       0.000000000000000
          0.000000000000000      -1.000000000000000       0.000000000000000
          0.000000000000000       0.000000000000000       1.000000000000000
          0.000000000000000       0.999995000000000       0.000000000000000
# Symm. op. 3       m
         -1.000000000000000       0.000000000000000       0.000000000000000
          0.000000000000000       1.000000000000000       0.000000000000000
          0.000000000000000       0.000000000000000       1.000000000000000
          0.000000000000000       0.000000000000000       0.000000000000000
# Symm. op. 4       m
          1.000000000000000       0.000000000000000       0.000000000000000
          0.000000000000000      -1.000000000000000       0.000000000000000
          0.000000000000000       0.000000000000000       1.000000000000000
          0.000000000000000       0.999995000000000       0.000000000000000
%ENDBLOCK symmetry_ops

kpoint_mp_grid :    6   3   1

