! Si(001) template file, processed from CASTEP output

%BLOCK lattice_cart
   ANG
       3.8641976000    0.0000000000    0.0000000000
       0.0000000000    7.7283952000    0.0000000000
       0.0000000000    0.0000000000   10.9296024000
%ENDBLOCK lattice_cart

%BLOCK CELL_CONSTRAINTS
       0    0    0
       0    0    0
%ENDBLOCK CELL_CONSTRAINTS

%BLOCK positions_frac
   Si       0.0000000000    0.3436379000    0.8624653249
   Si       0.0000000000    0.6563561000    0.8624607334
   Si       0.5000000000    0.2650442000    0.7504105946
   Si       0.5000000000    0.7349558000    0.7504076001
   Si       0.5000000000    0.0000000000    0.6372115890
   Si       0.5000000000    0.5000000000    0.6125581669
   Si       0.0000000000    0.0000000000    0.5082119230
   Si       0.0000000000    0.5000000000    0.4909777244
   Si       0.0000000000    0.7553354000    0.3747487450
   Si       0.0000000000    0.2446646000    0.3747487450
   Si       0.5000000000    0.7520678000    0.2499273206
   Si       0.5000000000    0.2479322000    0.2499273206
   Si       0.5000000000    0.5000000000    0.1252638030
   Si       0.5000000000    0.0000000000    0.1252638030
   Si       0.0000000000    0.5000000000    0.0000000000
   Si       0.0000000000    0.0000000000    0.0000000000
%ENDBLOCK positions_frac

