! Si(001) template file, processed from CASTEP output

%BLOCK lattice_cart
   ANG
       3.8641976000    0.0000000000    0.0000000000
       0.0000000000    7.7283952000    0.0000000000
       0.0000000000    0.0000000000   16.3944036000
%ENDBLOCK lattice_cart

%BLOCK CELL_CONSTRAINTS
       0    0    0
       0    0    0
%ENDBLOCK CELL_CONSTRAINTS

%BLOCK positions_frac
   Si       0.0000000000    0.3504082000    0.9049800610
   Si       0.0000000000    0.6495868000    0.9049773971
   Si       0.5000000000    0.2614496000    0.8377639334
   Si       0.5000000000    0.7385514000    0.8377626015
   Si       0.5000000000    0.0000000000    0.7620481643
   Si       0.5000000000    0.5000000000    0.7459552523
   Si       0.0000000000    0.0000000000    0.6761515390
   Si       0.0000000000    0.5000000000    0.6643164392
   Si       0.0000000000    0.7559077000    0.5868062422
   Si       0.0000000000    0.2440923000    0.5868062422
   Si       0.5000000000    0.7544901000    0.5030455156
   Si       0.5000000000    0.2455089000    0.5030455156
   Si       0.5000000000    0.5000000000    0.4210179486
   Si       0.5000000000    0.0000000000    0.4171700345
   Si       0.0000000000    0.5000000000    0.3363388638
   Si       0.0000000000    0.0000000000    0.3338455113
   Si       0.0000000000    0.7485755000    0.2512725235
   Si       0.0000000000    0.2514245000    0.2512725235
   Si       0.5000000000    0.7493817000    0.1673664512
   Si       0.5000000000    0.2506183000    0.1673664512
   Si       0.5000000000    0.5000000000    0.0835091604
   Si       0.5000000000    0.0000000000    0.0835091604
   Si       0.0000000000    0.5000000000    0.0000000000
   Si       0.0000000000    0.0000000000    0.0000000000
%ENDBLOCK positions_frac

