# CELL file written 11:30:03 (GMT+1.0) 4th June 2025 from run si001_H_1_2_8

%BLOCK lattice_cart
   ANG
       3.86420000000000        0.00000000000000        0.00000000000000    
       0.00000000000000        7.72840000000000        0.00000000000000    
       0.00000000000000        0.00000000000000        21.8186906038000    
%ENDBLOCK lattice_cart

%BLOCK cell_constraints
      0   0   0
      0   0   0
%ENDBLOCK cell_constraints

%BLOCK positions_frac
   H                0.000000000000000       0.273934738801739       0.536061706321565
   H                0.000000000000000       0.726059261198261       0.536059447421565
   H                0.000000000000000       0.841526723300000      -0.000000000000000
   H                0.000000000000000       0.341526723300000       0.000000000000000
   H                0.000000000000000       0.658473276700000       0.000000000000000
   H                0.000000000000000       0.158473276700000      -0.000000000000000
   Si               0.000000000000000       0.343637873793123       0.471725302356467
   Si               0.000000000000000       0.656356126206877       0.471723043456467
   Si               0.500000000000000       0.265044203200769       0.415593944187049
   Si               0.500000000000000       0.734955796799231       0.415592438187049
   Si               0.500000000000000       0.000000000000000       0.358889346459032
   Si               0.500000000000000       0.500000000000000       0.346539659970857
   Si               0.000000000000000       0.000000000000000       0.294269694793542
   Si               0.000000000000000       0.500000000000000       0.285636615378318
   Si               0.000000000000000       0.755335379006179       0.227414179447242
   Si               0.000000000000000       0.244664620993821       0.227414179447242
   Si               0.500000000000000       0.752067763064315       0.164887556676458
   Si               0.500000000000000       0.247932236935685       0.164887556676458
   Si               0.500000000000000       0.500000000000000       0.102440086500000
   Si               0.500000000000000       0.000000000000000       0.102440086500000
   Si               0.000000000000000       0.500000000000000       0.039691905400000
   Si               0.000000000000000       0.000000000000000       0.039691905400000
%ENDBLOCK positions_frac

FIX_COM : false

%BLOCK ionic_constraints
        1 Si            13        1.00000000    0.00000000    0.00000000
        2 Si            13        0.00000000    1.00000000    0.00000000
        3 Si            13        0.00000000    0.00000000    1.00000000
        4 Si            14        1.00000000    0.00000000    0.00000000
        5 Si            14        0.00000000    1.00000000    0.00000000
        6 Si            14        0.00000000    0.00000000    1.00000000
        7 Si            15        1.00000000    0.00000000    0.00000000
        8 Si            15        0.00000000    1.00000000    0.00000000
        9 Si            15        0.00000000    0.00000000    1.00000000
       10 Si            16        1.00000000    0.00000000    0.00000000
       11 Si            16        0.00000000    1.00000000    0.00000000
       12 Si            16        0.00000000    0.00000000    1.00000000
       13 H              3        1.00000000    0.00000000    0.00000000
       14 H              3        0.00000000    1.00000000    0.00000000
       15 H              3        0.00000000    0.00000000    1.00000000
       16 H              4        1.00000000    0.00000000    0.00000000
       17 H              4        0.00000000    1.00000000    0.00000000
       18 H              4        0.00000000    0.00000000    1.00000000
       19 H              5        1.00000000    0.00000000    0.00000000
       20 H              5        0.00000000    1.00000000    0.00000000
       21 H              5        0.00000000    0.00000000    1.00000000
       22 H              6        1.00000000    0.00000000    0.00000000
       23 H              6        0.00000000    1.00000000    0.00000000
       24 H              6        0.00000000    0.00000000    1.00000000
%ENDBLOCK ionic_constraints

%BLOCK species_pot
   H         1|0.6|13|15|17|10(qc=8)
   Si        3|1.8|5|6|7|30:31:32
%ENDBLOCK species_pot

%BLOCK symmetry_ops
# Symm. op. 1       E
          1.000000000000000       0.000000000000000       0.000000000000000
          0.000000000000000       1.000000000000000       0.000000000000000
          0.000000000000000       0.000000000000000       1.000000000000000
          0.000000000000000       0.000000000000000       0.000000000000000
# Symm. op. 2       2
         -1.000000000000000       0.000000000000000       0.000000000000000
          0.000000000000000      -1.000000000000000       0.000000000000000
          0.000000000000000       0.000000000000000       1.000000000000000
          0.000000000000000       0.999994000000000       0.000000000000000
# Symm. op. 3       m
         -1.000000000000000       0.000000000000000       0.000000000000000
          0.000000000000000       1.000000000000000       0.000000000000000
          0.000000000000000       0.000000000000000       1.000000000000000
          0.000000000000000       0.000000000000000       0.000000000000000
# Symm. op. 4       m
          1.000000000000000       0.000000000000000       0.000000000000000
          0.000000000000000      -1.000000000000000       0.000000000000000
          0.000000000000000       0.000000000000000       1.000000000000000
          0.000000000000000       0.999994000000000       0.000000000000000
%ENDBLOCK symmetry_ops

kpoint_mp_grid :    6   3   2

