! Si(001) template file, processed from CASTEP output

%BLOCK lattice_cart
   ANG
       3.8641976000    0.0000000000    0.0000000000
       0.0000000000    7.7283952000    0.0000000000
       0.0000000000    0.0000000000   16.3944036000
%ENDBLOCK lattice_cart

%BLOCK CELL_CONSTRAINTS
       0    0    0
       0    0    0
%ENDBLOCK CELL_CONSTRAINTS

%BLOCK positions_frac
   Si       0.0000000000    0.3440556000    0.9094831128
   Si       0.0000000000    0.6559394000    0.9094804490
   Si       0.5000000000    0.2644805000    0.8350609702
   Si       0.5000000000    0.7355205000    0.8350596382
   Si       0.5000000000    0.0000000000    0.7599776962
   Si       0.5000000000    0.5000000000    0.7432158278
   Si       0.0000000000    0.0000000000    0.6742109329
   Si       0.0000000000    0.5000000000    0.6621011249
   Si       0.0000000000    0.7561964000    0.5847694050
   Si       0.0000000000    0.2438036000    0.5847694050
   Si       0.5000000000    0.7544207000    0.5013098586
   Si       0.5000000000    0.2455783000    0.5013098586
   Si       0.5000000000    0.5000000000    0.4198668376
   Si       0.5000000000    0.0000000000    0.4161797527
   Si       0.0000000000    0.5000000000    0.3358535458
   Si       0.0000000000    0.0000000000    0.3333943238
   Si       0.0000000000    0.7489097000    0.2509670146
   Si       0.0000000000    0.2510903000    0.2509670146
   Si       0.5000000000    0.7495089000    0.1672735498
   Si       0.5000000000    0.2504911000    0.1672735498
   Si       0.5000000000    0.5000000000    0.0835091604
   Si       0.5000000000    0.0000000000    0.0835091604
   Si       0.0000000000    0.5000000000    0.0000000000
   Si       0.0000000000    0.0000000000    0.0000000000
%ENDBLOCK positions_frac

