! Si(001) template file, processed from CASTEP output

%BLOCK lattice_cart
   ANG
       3.8641976000    0.0000000000    0.0000000000
       0.0000000000    7.7283952000    0.0000000000
       0.0000000000    0.0000000000   21.8592048000
%ENDBLOCK lattice_cart

%BLOCK CELL_CONSTRAINTS
       0    0    0
       0    0    0
%ENDBLOCK CELL_CONSTRAINTS

%BLOCK positions_frac
   Si       0.0000000000    0.6491282000    0.9274519173
   Si       0.0000000000    0.3508672000    0.9274538157
   Si       0.5000000000    0.7386160000    0.8774410428
   Si       0.5000000000    0.2613854000    0.8774412154
   Si       0.5000000000    0.0000008000    0.8205662047
   Si       0.5000000000    0.4999999000    0.8088486947
   Si      -0.0000000000    0.0000001000    0.7563082739
   Si       0.0000000000    0.5000001000    0.7474829067
   Si       0.0000000000    0.7560191000    0.6892296497
   Si      -0.0000000000    0.2439810000    0.6892296497
   Si       0.5000000000    0.7547626000    0.6263831012
   Si       0.5000000000    0.2452373000    0.6263831012
   Si       0.5000000000    0.5000000000    0.5651084369
   Si       0.5000000000    0.0000000000    0.5619600086
   Si      -0.0000000000    0.5000000000    0.5018395782
   Si      -0.0000000000    0.0000000000    0.4995078118
   Si      -0.0000000000    0.7484696000    0.4379480407
   Si      -0.0000000000    0.2515304000    0.4379480407
   Si       0.5000000000    0.7489853000    0.3752813235
   Si       0.5000000000    0.2510149000    0.3752813235
   Si       0.5000000000    0.5000000000    0.3123660870
   Si       0.5000000000    0.0000000000    0.3130170694
   Si       0.0000000000    0.5000001000    0.2498025743
   Si      -0.0000000000    0.0000001000    0.2502535332
   Si      -0.0000000000    0.7502990000    0.1874972454
   Si       0.0000000000    0.2497011000    0.1874972454
   Si       0.5000000000    0.7501333000    0.1249753252
   Si       0.5000000000    0.2498668000    0.1249753252
   Si       0.5000000000    0.5000000000    0.0625000023
   Si       0.5000000000    0.0000000000    0.0625000023
   Si       0.0000000000    0.5000000000    0.0000000000
   Si      -0.0000000000    0.0000000000    0.0000000000
%ENDBLOCK positions_frac

