# CELL file written 18:14:24 (GMT+1.0) 3rd June 2025 from run si001_2x1_1_2_12

%BLOCK lattice_cart
   ANG
       3.86420000000000        0.00000000000000        0.00000000000000    
       0.00000000000000        7.72840000000000        0.00000000000000    
       0.00000000000000        0.00000000000000        27.2950232038000    
%ENDBLOCK lattice_cart

%BLOCK cell_constraints
      0   0   0
      0   0   0
%ENDBLOCK cell_constraints

%BLOCK positions_frac
   H                0.000000000000000       0.841526723300000      -0.000000000000000
   H                0.000000000000000       0.341526723300000       0.000000000000000
   H                0.000000000000000       0.658473276700000       0.000000000000000
   H                0.000000000000000       0.158473276700000      -0.000000000000000
   Si               0.000000000000000       0.350408224778462       0.575292960407165
   Si               0.000000000000000       0.649586775221538       0.575291355307165
   Si               0.500000000000000       0.261449634073688       0.534920471268883
   Si               0.500000000000000       0.738551365926312       0.534919668668883
   Si               0.500000000000000       0.000000000000000       0.489442736147251
   Si               0.500000000000000       0.500000000000000       0.479776684824455
   Si               0.000000000000000       0.000000000000000       0.437850007238829
   Si               0.000000000000000       0.500000000000000       0.430741460875143
   Si               0.000000000000000       0.755907680127636       0.384185937965815
   Si               0.000000000000000       0.244092319872364       0.384185937965815
   Si               0.500000000000000       0.754490135885151       0.333876142921600
   Si               0.500000000000000       0.245508864114849       0.333876142921600
   Si               0.500000000000000       0.500000000000000       0.284607324702193
   Si               0.500000000000000       0.000000000000000       0.282296100154216
   Si               0.000000000000000       0.500000000000000       0.233745961346665
   Si               0.000000000000000       0.000000000000000       0.232248296771741
   Si               0.000000000000000       0.748575534305364       0.182651944820090
   Si               0.000000000000000       0.251424465694636       0.182651944820090
   Si               0.500000000000000       0.749381672883980       0.132254783283261
   Si               0.500000000000000       0.250618327116020       0.132254783283261
   Si               0.500000000000000       0.500000000000000       0.081887036200000
   Si               0.500000000000000       0.000000000000000       0.081887036200000
   Si               0.000000000000000       0.500000000000000       0.031728326300000
   Si               0.000000000000000       0.000000000000000       0.031728326300000
%ENDBLOCK positions_frac

FIX_COM : false

%BLOCK ionic_constraints
        1 Si            21        1.00000000    0.00000000    0.00000000
        2 Si            21        0.00000000    1.00000000    0.00000000
        3 Si            21        0.00000000    0.00000000    1.00000000
        4 Si            22        1.00000000    0.00000000    0.00000000
        5 Si            22        0.00000000    1.00000000    0.00000000
        6 Si            22        0.00000000    0.00000000    1.00000000
        7 Si            23        1.00000000    0.00000000    0.00000000
        8 Si            23        0.00000000    1.00000000    0.00000000
        9 Si            23        0.00000000    0.00000000    1.00000000
       10 Si            24        1.00000000    0.00000000    0.00000000
       11 Si            24        0.00000000    1.00000000    0.00000000
       12 Si            24        0.00000000    0.00000000    1.00000000
       13 H              1        1.00000000    0.00000000    0.00000000
       14 H              1        0.00000000    1.00000000    0.00000000
       15 H              1        0.00000000    0.00000000    1.00000000
       16 H              2        1.00000000    0.00000000    0.00000000
       17 H              2        0.00000000    1.00000000    0.00000000
       18 H              2        0.00000000    0.00000000    1.00000000
       19 H              3        1.00000000    0.00000000    0.00000000
       20 H              3        0.00000000    1.00000000    0.00000000
       21 H              3        0.00000000    0.00000000    1.00000000
       22 H              4        1.00000000    0.00000000    0.00000000
       23 H              4        0.00000000    1.00000000    0.00000000
       24 H              4        0.00000000    0.00000000    1.00000000
%ENDBLOCK ionic_constraints

%BLOCK species_pot
   H         1|0.6|13|15|17|10(qc=8)
   Si        3|1.8|5|6|7|30:31:32
%ENDBLOCK species_pot

%BLOCK symmetry_ops
# Symm. op. 1       E
          1.000000000000000       0.000000000000000       0.000000000000000
          0.000000000000000       1.000000000000000       0.000000000000000
          0.000000000000000       0.000000000000000       1.000000000000000
          0.000000000000000       0.000000000000000       0.000000000000000
# Symm. op. 2       2
         -1.000000000000000       0.000000000000000       0.000000000000000
          0.000000000000000      -1.000000000000000       0.000000000000000
          0.000000000000000       0.000000000000000       1.000000000000000
          0.000000000000000       0.000000000000000       0.000000000000000
# Symm. op. 3       m
         -1.000000000000000       0.000000000000000       0.000000000000000
          0.000000000000000       1.000000000000000       0.000000000000000
          0.000000000000000       0.000000000000000       1.000000000000000
          0.000000000000000       0.000000000000000       0.000000000000000
# Symm. op. 4       m
          1.000000000000000       0.000000000000000       0.000000000000000
          0.000000000000000      -1.000000000000000       0.000000000000000
          0.000000000000000       0.000000000000000       1.000000000000000
          0.000000000000000       0.000000000000000       0.000000000000000
%ENDBLOCK symmetry_ops

kpoint_mp_grid :    6   3   1

