# CELL file written 05:35:43 (GMT+1.0) 28th May 2025 from run si001_114

%BLOCK lattice_cart
   ANG
       3.86419760000000        0.00000000000000        0.00000000000000    
       0.00000000000000        7.72839520000000        0.00000000000000    
       0.00000000000000        0.00000000000000        37.7252302038000    
%ENDBLOCK lattice_cart

%BLOCK cell_constraints
      0   0   0
      0   0   0
%ENDBLOCK cell_constraints

%BLOCK positions_frac
   H                0.000000000000000       0.841526624900000      -0.000000000000000
   H               -0.000000000000000       0.341526624900000      -0.000000000000000
   H               -0.000000000000000       0.658473375100000      -0.000000000000000
   H                0.000000000000000       0.158473375100000      -0.000000000000000
   Si               0.000000006257400       0.649128239968614       0.560351472975576
   Si               0.000000029128364       0.350867160359683       0.560352570734794
   Si               0.500000005389314       0.738615959536139       0.531373532500510
   Si               0.500000026397468       0.261385375044399       0.531373616304826
   Si               0.500000012880194       0.000000756601676       0.498418399296677
   Si               0.499999982256602       0.499999870346448       0.491628906422035
   Si              -0.000000005498772       0.000000123816564       0.461185344810736
   Si               0.000000009203562       0.500000117046090       0.456071671053378
   Si               0.000000004296892       0.756019117720985       0.422317855443760
   Si              -0.000000002787703       0.243981039370896       0.422317847141203
   Si               0.499999993210759       0.754762584140980       0.385902534689171
   Si               0.499999996755791       0.245237340527909       0.385902532186744
   Si               0.499999992128361       0.499999994498386       0.350398042466483
   Si               0.499999998857976       0.000000030866478       0.348573701788248
   Si              -0.000000011478465       0.500000025638402       0.313738028605851
   Si              -0.000000003658202       0.000000041539362       0.312386971683345
   Si              -0.000000011518341       0.748469625730713       0.276717213393188
   Si              -0.000000005885350       0.251530393333518       0.276717213979347
   Si               0.499999997696191       0.748985283135869       0.240406137438208
   Si               0.499999994766100       0.251014850930326       0.240406134933643
   Si               0.500000003348304       0.500000033545344       0.203951060920562
   Si               0.499999987356629       0.000000027519173       0.204328211673785
   Si               0.000000001905920       0.500000065179007       0.167699697147033
   Si              -0.000000012577248       0.000000057861757       0.167961067631485
   Si              -0.000000010953786       0.750298963530589       0.131597990176723
   Si               0.000000005608337       0.249701121527537       0.131597990324747
   Si               0.499999986115265       0.750133272890785       0.095370878485795
   Si               0.500000009004084       0.249866752189508       0.095370878311882
   Si               0.500000000000000       0.500000000000000       0.059170631700000
   Si               0.500000000000000       0.000000000000000       0.059170631700000
   Si               0.000000000000000       0.500000000000000       0.022956133000000
   Si              -0.000000000000000       0.000000000000000       0.022956133000000
%ENDBLOCK positions_frac

FIX_COM : false

%BLOCK ionic_constraints
        1 Si            29        1.00000000    0.00000000    0.00000000
        2 Si            29        0.00000000    1.00000000    0.00000000
        3 Si            29        0.00000000    0.00000000    1.00000000
        4 Si            30        1.00000000    0.00000000    0.00000000
        5 Si            30        0.00000000    1.00000000    0.00000000
        6 Si            30        0.00000000    0.00000000    1.00000000
        7 Si            31        1.00000000    0.00000000    0.00000000
        8 Si            31        0.00000000    1.00000000    0.00000000
        9 Si            31        0.00000000    0.00000000    1.00000000
       10 Si            32        1.00000000    0.00000000    0.00000000
       11 Si            32        0.00000000    1.00000000    0.00000000
       12 Si            32        0.00000000    0.00000000    1.00000000
       13 H              1        1.00000000    0.00000000    0.00000000
       14 H              1        0.00000000    1.00000000    0.00000000
       15 H              1        0.00000000    0.00000000    1.00000000
       16 H              2        1.00000000    0.00000000    0.00000000
       17 H              2        0.00000000    1.00000000    0.00000000
       18 H              2        0.00000000    0.00000000    1.00000000
       19 H              3        1.00000000    0.00000000    0.00000000
       20 H              3        0.00000000    1.00000000    0.00000000
       21 H              3        0.00000000    0.00000000    1.00000000
       22 H              4        1.00000000    0.00000000    0.00000000
       23 H              4        0.00000000    1.00000000    0.00000000
       24 H              4        0.00000000    0.00000000    1.00000000
%ENDBLOCK ionic_constraints

%BLOCK species_pot
   H         1|0.6|13|15|17|10(qc=8)
   Si        3|1.8|5|6|7|30:31:32
%ENDBLOCK species_pot

SYMMETRY_TOL :     0.001000

%BLOCK symmetry_ops
# Symm. op. 1       E
          1.000000000000000       0.000000000000000       0.000000000000000
          0.000000000000000       1.000000000000000       0.000000000000000
          0.000000000000000       0.000000000000000       1.000000000000000
          0.000000000000000       0.000000000000000       0.000000000000000
%ENDBLOCK symmetry_ops

kpoint_mp_grid :    8   4   4

